Minimize
	value: tt

Subject to
tt + 1000 s_1_1 > 0.0
tt - t_1_1 - 1003.291033 s_1_1  + 1.645517 s_1_8  + 1.645517 s_1_7  > -977.437411
tt + 1000 s_2_1 > 0.0
tt - t_2_1 - 1004.831913 s_2_1  + 2.415957 s_2_8  + 2.415957 s_2_7  > -955.333500
tt + 1000 s_1_2 > 0.0
tt - t_1_2 - 1001.645517 s_1_2  + 1.645517 s_1_7  > -977.503200
tt + 1000 s_2_2 > 0.0
tt - t_2_2 - 1002.415957 s_2_2  + 2.415957 s_2_7  > -955.271300
tt + 1000 s_1_3 > 0.0
tt - t_1_3 - 1003.291033 s_1_3  + 1.645517 s_1_8  + 1.645517 s_1_7  > -994.753000
tt + 1000 s_2_3 > 0.0
tt - t_2_3 - 1004.831913 s_2_3  + 2.415957 s_2_8  + 2.415957 s_2_7  > -993.972733
tt + 1000 s_1_4 > 0.0
tt - t_1_4 - 1001.645517 s_1_4  + 1.645517 s_1_7  > -990.637800
tt + 1000 s_2_4 > 0.0
tt - t_2_4 - 1002.415957 s_2_4  + 2.415957 s_2_7  > -990.517900
tt + 1000 s_1_5 > 0.0
tt - t_1_5 - 1001.645517 s_1_5  + 1.645517 s_1_8  > -989.778400
tt + 1000 s_2_5 > 0.0
tt - t_2_5 - 1002.415957 s_2_5  + 2.415957 s_2_8  > -977.917000
tt + 1000 s_1_6 > 0.0
tt - t_1_6 - 1009.873100 s_1_6  + 1.645517 s_1_7  + 1.645517 s_1_3  + 1.645517 s_1_1  + 1.645517 s_1_4  + 1.645517 s_1_2  + 1.645517 s_1_5  > -996.642300
tt + 1000 s_2_6 > 0.0
tt - t_2_6 - 1014.495739 s_2_6  + 2.415957 s_2_7  + 2.415957 s_2_3  + 2.415957 s_2_1  + 2.415957 s_2_4  + 2.415957 s_2_2  + 2.415957 s_2_5  > -994.951400
tt + 1000 s_1_7 > 0.0
tt - t_1_7 - 1000.000000 s_1_7  > -960.192000
tt + 1000 s_2_7 > 0.0
tt - t_2_7 - 1000.000000 s_2_7  > -953.548700
tt + 1000 s_1_8 > 0.0
tt - t_1_8 - 1000.000000 s_1_8  > -962.670800
tt + 1000 s_2_8 > 0.0
tt - t_2_8 - 1000.000000 s_2_8  > -955.423000
s_1_1 + s_2_1 = 1
s_1_2 + s_2_2 = 1
s_1_3 + s_2_3 = 1
s_1_4 + s_2_4 = 1
s_1_5 + s_2_5 = 1
s_1_6 + s_2_6 = 1
s_1_7 + s_2_7 = 1
s_1_8 + s_2_8 = 1
s_1_1 + s_1_2 + 1000 r_1_1_2 >= 2
- s_1_1 - s_1_2 - 1000 r_1_1_2 >= -1001
t_1_1 - t_1_2 - 1000.000000 u_1_1_2 - 1.645517 s_1_2  + 1.645517 s_1_7  + 2000.000000 r_1_1_2 > -977.503200
s_2_1 + s_2_2 + 1000 r_2_1_2 >= 2
- s_2_1 - s_2_2 - 1000 r_2_1_2 >= -1001
t_2_1 - t_2_2 - 1000.000000 u_2_1_2 - 2.415957 s_2_2  + 2.415957 s_2_7  + 2000.000000 r_2_1_2 > -955.271300
s_1_1 + s_1_3 + 1000 r_1_1_3 >= 2
- s_1_1 - s_1_3 - 1000 r_1_1_3 >= -1001
t_1_1 - t_1_3 - 1000.000000 u_1_1_3 - 3.291033 s_1_3  + 1.645517 s_1_8  + 1.645517 s_1_7  + 2000.000000 r_1_1_3 > -994.753000
s_2_1 + s_2_3 + 1000 r_2_1_3 >= 2
- s_2_1 - s_2_3 - 1000 r_2_1_3 >= -1001
t_2_1 - t_2_3 - 1000.000000 u_2_1_3 - 4.831913 s_2_3  + 2.415957 s_2_8  + 2.415957 s_2_7  + 2000.000000 r_2_1_3 > -993.972733
s_1_1 + s_1_4 + 1000 r_1_1_4 >= 2
- s_1_1 - s_1_4 - 1000 r_1_1_4 >= -1001
t_1_1 - t_1_4 - 1000.000000 u_1_1_4 - 1.645517 s_1_4  + 1.645517 s_1_7  + 2000.000000 r_1_1_4 > -990.637800
s_2_1 + s_2_4 + 1000 r_2_1_4 >= 2
- s_2_1 - s_2_4 - 1000 r_2_1_4 >= -1001
t_2_1 - t_2_4 - 1000.000000 u_2_1_4 - 2.415957 s_2_4  + 2.415957 s_2_7  + 2000.000000 r_2_1_4 > -990.517900
s_1_1 + s_1_5 + 1000 r_1_1_5 >= 2
- s_1_1 - s_1_5 - 1000 r_1_1_5 >= -1001
t_1_1 - t_1_5 - 1000.000000 u_1_1_5 - 1.645517 s_1_5  + 1.645517 s_1_8  + 2000.000000 r_1_1_5 > -989.778400
s_2_1 + s_2_5 + 1000 r_2_1_5 >= 2
- s_2_1 - s_2_5 - 1000 r_2_1_5 >= -1001
t_2_1 - t_2_5 - 1000.000000 u_2_1_5 - 2.415957 s_2_5  + 2.415957 s_2_8  + 2000.000000 r_2_1_5 > -977.917000
t_1_6 - t_1_1 - 1003.291033 s_1_1  + 1.645517 s_1_8  + 1.645517 s_1_7  > -977.437411
t_1_6 - t_2_1 - 1004.831913 s_2_1  + 2.415957 s_2_8  + 2.415957 s_2_7  > -955.333500
t_2_6 - t_1_1 - 1003.291033 s_1_1  + 1.645517 s_1_8  + 1.645517 s_1_7  > -977.437411
t_2_6 - t_2_1 - 1004.831913 s_2_1  + 2.415957 s_2_8  + 2.415957 s_2_7  > -955.333500
t_1_1 - t_1_7 - 1000.000000 s_1_7  > -960.192000
t_1_1 - t_2_7 - 1000.000000 s_2_7  > -953.548700
t_2_1 - t_1_7 - 1000.000000 s_1_7  > -960.192000
t_2_1 - t_2_7 - 1000.000000 s_2_7  > -953.548700
t_1_1 - t_1_8 - 1000.000000 s_1_8  > -962.670800
t_1_1 - t_2_8 - 1000.000000 s_2_8  > -955.423000
t_2_1 - t_1_8 - 1000.000000 s_1_8  > -962.670800
t_2_1 - t_2_8 - 1000.000000 s_2_8  > -955.423000
s_1_2 + s_1_1 + 1000 r_1_1_2 >= 2
- s_1_2 - s_1_1 - 1000 r_1_1_2 >= -1001
t_1_2 - t_1_1 + 1000.000000 u_1_1_2 - 3.291033 s_1_1  + 1.645517 s_1_8  + 1.645517 s_1_7  + 2000.000000 r_1_1_2 > 22.562589
s_2_2 + s_2_1 + 1000 r_2_1_2 >= 2
- s_2_2 - s_2_1 - 1000 r_2_1_2 >= -1001
t_2_2 - t_2_1 + 1000.000000 u_2_1_2 - 4.831913 s_2_1  + 2.415957 s_2_8  + 2.415957 s_2_7  + 2000.000000 r_2_1_2 > 44.666500
s_1_2 + s_1_3 + 1000 r_1_2_3 >= 2
- s_1_2 - s_1_3 - 1000 r_1_2_3 >= -1001
t_1_2 - t_1_3 - 1000.000000 u_1_2_3 - 3.291033 s_1_3  + 1.645517 s_1_8  + 1.645517 s_1_7  + 2000.000000 r_1_2_3 > -994.753000
s_2_2 + s_2_3 + 1000 r_2_2_3 >= 2
- s_2_2 - s_2_3 - 1000 r_2_2_3 >= -1001
t_2_2 - t_2_3 - 1000.000000 u_2_2_3 - 4.831913 s_2_3  + 2.415957 s_2_8  + 2.415957 s_2_7  + 2000.000000 r_2_2_3 > -993.972733
s_1_2 + s_1_4 + 1000 r_1_2_4 >= 2
- s_1_2 - s_1_4 - 1000 r_1_2_4 >= -1001
t_1_2 - t_1_4 - 1000.000000 u_1_2_4 - 1.645517 s_1_4  + 1.645517 s_1_7  + 2000.000000 r_1_2_4 > -990.637800
s_2_2 + s_2_4 + 1000 r_2_2_4 >= 2
- s_2_2 - s_2_4 - 1000 r_2_2_4 >= -1001
t_2_2 - t_2_4 - 1000.000000 u_2_2_4 - 2.415957 s_2_4  + 2.415957 s_2_7  + 2000.000000 r_2_2_4 > -990.517900
s_1_2 + s_1_5 + 1000 r_1_2_5 >= 2
- s_1_2 - s_1_5 - 1000 r_1_2_5 >= -1001
t_1_2 - t_1_5 - 1000.000000 u_1_2_5 - 1.645517 s_1_5  + 1.645517 s_1_8  + 2000.000000 r_1_2_5 > -989.778400
s_2_2 + s_2_5 + 1000 r_2_2_5 >= 2
- s_2_2 - s_2_5 - 1000 r_2_2_5 >= -1001
t_2_2 - t_2_5 - 1000.000000 u_2_2_5 - 2.415957 s_2_5  + 2.415957 s_2_8  + 2000.000000 r_2_2_5 > -977.917000
t_1_6 - t_1_2 - 1001.645517 s_1_2  + 1.645517 s_1_7  > -977.503200
t_1_6 - t_2_2 - 1002.415957 s_2_2  + 2.415957 s_2_7  > -955.271300
t_2_6 - t_1_2 - 1001.645517 s_1_2  + 1.645517 s_1_7  > -977.503200
t_2_6 - t_2_2 - 1002.415957 s_2_2  + 2.415957 s_2_7  > -955.271300
t_1_2 - t_1_7 - 1000.000000 s_1_7  > -960.192000
t_1_2 - t_2_7 - 1000.000000 s_2_7  > -953.548700
t_2_2 - t_1_7 - 1000.000000 s_1_7  > -960.192000
t_2_2 - t_2_7 - 1000.000000 s_2_7  > -953.548700
s_1_2 + s_1_8 + 1000 r_1_2_8 >= 2
- s_1_2 - s_1_8 - 1000 r_1_2_8 >= -1001
t_1_2 - t_1_8 - 1000.000000 u_1_2_8 - 0.000000 s_1_8  + 2000.000000 r_1_2_8 > -962.670800
s_2_2 + s_2_8 + 1000 r_2_2_8 >= 2
- s_2_2 - s_2_8 - 1000 r_2_2_8 >= -1001
t_2_2 - t_2_8 - 1000.000000 u_2_2_8 - 0.000000 s_2_8  + 2000.000000 r_2_2_8 > -955.423000
s_1_3 + s_1_1 + 1000 r_1_1_3 >= 2
- s_1_3 - s_1_1 - 1000 r_1_1_3 >= -1001
t_1_3 - t_1_1 + 1000.000000 u_1_1_3 - 3.291033 s_1_1  + 1.645517 s_1_8  + 1.645517 s_1_7  + 2000.000000 r_1_1_3 > 22.562589
s_2_3 + s_2_1 + 1000 r_2_1_3 >= 2
- s_2_3 - s_2_1 - 1000 r_2_1_3 >= -1001
t_2_3 - t_2_1 + 1000.000000 u_2_1_3 - 4.831913 s_2_1  + 2.415957 s_2_8  + 2.415957 s_2_7  + 2000.000000 r_2_1_3 > 44.666500
s_1_3 + s_1_2 + 1000 r_1_2_3 >= 2
- s_1_3 - s_1_2 - 1000 r_1_2_3 >= -1001
t_1_3 - t_1_2 + 1000.000000 u_1_2_3 - 1.645517 s_1_2  + 1.645517 s_1_7  + 2000.000000 r_1_2_3 > 22.496800
s_2_3 + s_2_2 + 1000 r_2_2_3 >= 2
- s_2_3 - s_2_2 - 1000 r_2_2_3 >= -1001
t_2_3 - t_2_2 + 1000.000000 u_2_2_3 - 2.415957 s_2_2  + 2.415957 s_2_7  + 2000.000000 r_2_2_3 > 44.728700
s_1_3 + s_1_4 + 1000 r_1_3_4 >= 2
- s_1_3 - s_1_4 - 1000 r_1_3_4 >= -1001
t_1_3 - t_1_4 - 1000.000000 u_1_3_4 - 1.645517 s_1_4  + 1.645517 s_1_7  + 2000.000000 r_1_3_4 > -990.637800
s_2_3 + s_2_4 + 1000 r_2_3_4 >= 2
- s_2_3 - s_2_4 - 1000 r_2_3_4 >= -1001
t_2_3 - t_2_4 - 1000.000000 u_2_3_4 - 2.415957 s_2_4  + 2.415957 s_2_7  + 2000.000000 r_2_3_4 > -990.517900
s_1_3 + s_1_5 + 1000 r_1_3_5 >= 2
- s_1_3 - s_1_5 - 1000 r_1_3_5 >= -1001
t_1_3 - t_1_5 - 1000.000000 u_1_3_5 - 1.645517 s_1_5  + 1.645517 s_1_8  + 2000.000000 r_1_3_5 > -989.778400
s_2_3 + s_2_5 + 1000 r_2_3_5 >= 2
- s_2_3 - s_2_5 - 1000 r_2_3_5 >= -1001
t_2_3 - t_2_5 - 1000.000000 u_2_3_5 - 2.415957 s_2_5  + 2.415957 s_2_8  + 2000.000000 r_2_3_5 > -977.917000
t_1_6 - t_1_3 - 1003.291033 s_1_3  + 1.645517 s_1_8  + 1.645517 s_1_7  > -994.753000
t_1_6 - t_2_3 - 1004.831913 s_2_3  + 2.415957 s_2_8  + 2.415957 s_2_7  > -993.972733
t_2_6 - t_1_3 - 1003.291033 s_1_3  + 1.645517 s_1_8  + 1.645517 s_1_7  > -994.753000
t_2_6 - t_2_3 - 1004.831913 s_2_3  + 2.415957 s_2_8  + 2.415957 s_2_7  > -993.972733
t_1_3 - t_1_7 - 1000.000000 s_1_7  > -960.192000
t_1_3 - t_2_7 - 1000.000000 s_2_7  > -953.548700
t_2_3 - t_1_7 - 1000.000000 s_1_7  > -960.192000
t_2_3 - t_2_7 - 1000.000000 s_2_7  > -953.548700
t_1_3 - t_1_8 - 1000.000000 s_1_8  > -962.670800
t_1_3 - t_2_8 - 1000.000000 s_2_8  > -955.423000
t_2_3 - t_1_8 - 1000.000000 s_1_8  > -962.670800
t_2_3 - t_2_8 - 1000.000000 s_2_8  > -955.423000
s_1_4 + s_1_1 + 1000 r_1_1_4 >= 2
- s_1_4 - s_1_1 - 1000 r_1_1_4 >= -1001
t_1_4 - t_1_1 + 1000.000000 u_1_1_4 - 3.291033 s_1_1  + 1.645517 s_1_8  + 1.645517 s_1_7  + 2000.000000 r_1_1_4 > 22.562589
s_2_4 + s_2_1 + 1000 r_2_1_4 >= 2
- s_2_4 - s_2_1 - 1000 r_2_1_4 >= -1001
t_2_4 - t_2_1 + 1000.000000 u_2_1_4 - 4.831913 s_2_1  + 2.415957 s_2_8  + 2.415957 s_2_7  + 2000.000000 r_2_1_4 > 44.666500
s_1_4 + s_1_2 + 1000 r_1_2_4 >= 2
- s_1_4 - s_1_2 - 1000 r_1_2_4 >= -1001
t_1_4 - t_1_2 + 1000.000000 u_1_2_4 - 1.645517 s_1_2  + 1.645517 s_1_7  + 2000.000000 r_1_2_4 > 22.496800
s_2_4 + s_2_2 + 1000 r_2_2_4 >= 2
- s_2_4 - s_2_2 - 1000 r_2_2_4 >= -1001
t_2_4 - t_2_2 + 1000.000000 u_2_2_4 - 2.415957 s_2_2  + 2.415957 s_2_7  + 2000.000000 r_2_2_4 > 44.728700
s_1_4 + s_1_3 + 1000 r_1_3_4 >= 2
- s_1_4 - s_1_3 - 1000 r_1_3_4 >= -1001
t_1_4 - t_1_3 + 1000.000000 u_1_3_4 - 3.291033 s_1_3  + 1.645517 s_1_8  + 1.645517 s_1_7  + 2000.000000 r_1_3_4 > 5.247000
s_2_4 + s_2_3 + 1000 r_2_3_4 >= 2
- s_2_4 - s_2_3 - 1000 r_2_3_4 >= -1001
t_2_4 - t_2_3 + 1000.000000 u_2_3_4 - 4.831913 s_2_3  + 2.415957 s_2_8  + 2.415957 s_2_7  + 2000.000000 r_2_3_4 > 6.027267
s_1_4 + s_1_5 + 1000 r_1_4_5 >= 2
- s_1_4 - s_1_5 - 1000 r_1_4_5 >= -1001
t_1_4 - t_1_5 - 1000.000000 u_1_4_5 - 1.645517 s_1_5  + 1.645517 s_1_8  + 2000.000000 r_1_4_5 > -989.778400
s_2_4 + s_2_5 + 1000 r_2_4_5 >= 2
- s_2_4 - s_2_5 - 1000 r_2_4_5 >= -1001
t_2_4 - t_2_5 - 1000.000000 u_2_4_5 - 2.415957 s_2_5  + 2.415957 s_2_8  + 2000.000000 r_2_4_5 > -977.917000
t_1_6 - t_1_4 - 1001.645517 s_1_4  + 1.645517 s_1_7  > -990.637800
t_1_6 - t_2_4 - 1002.415957 s_2_4  + 2.415957 s_2_7  > -990.517900
t_2_6 - t_1_4 - 1001.645517 s_1_4  + 1.645517 s_1_7  > -990.637800
t_2_6 - t_2_4 - 1002.415957 s_2_4  + 2.415957 s_2_7  > -990.517900
t_1_4 - t_1_7 - 1000.000000 s_1_7  > -960.192000
t_1_4 - t_2_7 - 1000.000000 s_2_7  > -953.548700
t_2_4 - t_1_7 - 1000.000000 s_1_7  > -960.192000
t_2_4 - t_2_7 - 1000.000000 s_2_7  > -953.548700
s_1_4 + s_1_8 + 1000 r_1_4_8 >= 2
- s_1_4 - s_1_8 - 1000 r_1_4_8 >= -1001
t_1_4 - t_1_8 - 1000.000000 u_1_4_8 - 0.000000 s_1_8  + 2000.000000 r_1_4_8 > -962.670800
s_2_4 + s_2_8 + 1000 r_2_4_8 >= 2
- s_2_4 - s_2_8 - 1000 r_2_4_8 >= -1001
t_2_4 - t_2_8 - 1000.000000 u_2_4_8 - 0.000000 s_2_8  + 2000.000000 r_2_4_8 > -955.423000
s_1_5 + s_1_1 + 1000 r_1_1_5 >= 2
- s_1_5 - s_1_1 - 1000 r_1_1_5 >= -1001
t_1_5 - t_1_1 + 1000.000000 u_1_1_5 - 3.291033 s_1_1  + 1.645517 s_1_8  + 1.645517 s_1_7  + 2000.000000 r_1_1_5 > 22.562589
s_2_5 + s_2_1 + 1000 r_2_1_5 >= 2
- s_2_5 - s_2_1 - 1000 r_2_1_5 >= -1001
t_2_5 - t_2_1 + 1000.000000 u_2_1_5 - 4.831913 s_2_1  + 2.415957 s_2_8  + 2.415957 s_2_7  + 2000.000000 r_2_1_5 > 44.666500
s_1_5 + s_1_2 + 1000 r_1_2_5 >= 2
- s_1_5 - s_1_2 - 1000 r_1_2_5 >= -1001
t_1_5 - t_1_2 + 1000.000000 u_1_2_5 - 1.645517 s_1_2  + 1.645517 s_1_7  + 2000.000000 r_1_2_5 > 22.496800
s_2_5 + s_2_2 + 1000 r_2_2_5 >= 2
- s_2_5 - s_2_2 - 1000 r_2_2_5 >= -1001
t_2_5 - t_2_2 + 1000.000000 u_2_2_5 - 2.415957 s_2_2  + 2.415957 s_2_7  + 2000.000000 r_2_2_5 > 44.728700
s_1_5 + s_1_3 + 1000 r_1_3_5 >= 2
- s_1_5 - s_1_3 - 1000 r_1_3_5 >= -1001
t_1_5 - t_1_3 + 1000.000000 u_1_3_5 - 3.291033 s_1_3  + 1.645517 s_1_8  + 1.645517 s_1_7  + 2000.000000 r_1_3_5 > 5.247000
s_2_5 + s_2_3 + 1000 r_2_3_5 >= 2
- s_2_5 - s_2_3 - 1000 r_2_3_5 >= -1001
t_2_5 - t_2_3 + 1000.000000 u_2_3_5 - 4.831913 s_2_3  + 2.415957 s_2_8  + 2.415957 s_2_7  + 2000.000000 r_2_3_5 > 6.027267
s_1_5 + s_1_4 + 1000 r_1_4_5 >= 2
- s_1_5 - s_1_4 - 1000 r_1_4_5 >= -1001
t_1_5 - t_1_4 + 1000.000000 u_1_4_5 - 1.645517 s_1_4  + 1.645517 s_1_7  + 2000.000000 r_1_4_5 > 9.362200
s_2_5 + s_2_4 + 1000 r_2_4_5 >= 2
- s_2_5 - s_2_4 - 1000 r_2_4_5 >= -1001
t_2_5 - t_2_4 + 1000.000000 u_2_4_5 - 2.415957 s_2_4  + 2.415957 s_2_7  + 2000.000000 r_2_4_5 > 9.482100
t_1_6 - t_1_5 - 1001.645517 s_1_5  + 1.645517 s_1_8  > -989.778400
t_1_6 - t_2_5 - 1002.415957 s_2_5  + 2.415957 s_2_8  > -977.917000
t_2_6 - t_1_5 - 1001.645517 s_1_5  + 1.645517 s_1_8  > -989.778400
t_2_6 - t_2_5 - 1002.415957 s_2_5  + 2.415957 s_2_8  > -977.917000
s_1_5 + s_1_7 + 1000 r_1_5_7 >= 2
- s_1_5 - s_1_7 - 1000 r_1_5_7 >= -1001
t_1_5 - t_1_7 - 1000.000000 u_1_5_7 - 0.000000 s_1_7  + 2000.000000 r_1_5_7 > -960.192000
s_2_5 + s_2_7 + 1000 r_2_5_7 >= 2
- s_2_5 - s_2_7 - 1000 r_2_5_7 >= -1001
t_2_5 - t_2_7 - 1000.000000 u_2_5_7 - 0.000000 s_2_7  + 2000.000000 r_2_5_7 > -953.548700
t_1_5 - t_1_8 - 1000.000000 s_1_8  > -962.670800
t_1_5 - t_2_8 - 1000.000000 s_2_8  > -955.423000
t_2_5 - t_1_8 - 1000.000000 s_1_8  > -962.670800
t_2_5 - t_2_8 - 1000.000000 s_2_8  > -955.423000
t_1_6 - t_1_7 - 1000.000000 s_1_7  > -960.192000
t_1_6 - t_2_7 - 1000.000000 s_2_7  > -953.548700
t_2_6 - t_1_7 - 1000.000000 s_1_7  > -960.192000
t_2_6 - t_2_7 - 1000.000000 s_2_7  > -953.548700
s_1_7 + s_1_5 + 1000 r_1_5_7 >= 2
- s_1_7 - s_1_5 - 1000 r_1_5_7 >= -1001
t_1_7 - t_1_5 + 1000.000000 u_1_5_7 - 1.645517 s_1_5  + 1.645517 s_1_8  + 2000.000000 r_1_5_7 > 10.221600
s_2_7 + s_2_5 + 1000 r_2_5_7 >= 2
- s_2_7 - s_2_5 - 1000 r_2_5_7 >= -1001
t_2_7 - t_2_5 + 1000.000000 u_2_5_7 - 2.415957 s_2_5  + 2.415957 s_2_8  + 2000.000000 r_2_5_7 > 22.083000
s_1_7 + s_1_8 + 1000 r_1_7_8 >= 2
- s_1_7 - s_1_8 - 1000 r_1_7_8 >= -1001
t_1_7 - t_1_8 - 1000.000000 u_1_7_8 - 0.000000 s_1_8  + 2000.000000 r_1_7_8 > -962.670800
s_2_7 + s_2_8 + 1000 r_2_7_8 >= 2
- s_2_7 - s_2_8 - 1000 r_2_7_8 >= -1001
t_2_7 - t_2_8 - 1000.000000 u_2_7_8 - 0.000000 s_2_8  + 2000.000000 r_2_7_8 > -955.423000
s_1_8 + s_1_2 + 1000 r_1_2_8 >= 2
- s_1_8 - s_1_2 - 1000 r_1_2_8 >= -1001
t_1_8 - t_1_2 + 1000.000000 u_1_2_8 - 1.645517 s_1_2  + 1.645517 s_1_7  + 2000.000000 r_1_2_8 > 22.496800
s_2_8 + s_2_2 + 1000 r_2_2_8 >= 2
- s_2_8 - s_2_2 - 1000 r_2_2_8 >= -1001
t_2_8 - t_2_2 + 1000.000000 u_2_2_8 - 2.415957 s_2_2  + 2.415957 s_2_7  + 2000.000000 r_2_2_8 > 44.728700
s_1_8 + s_1_4 + 1000 r_1_4_8 >= 2
- s_1_8 - s_1_4 - 1000 r_1_4_8 >= -1001
t_1_8 - t_1_4 + 1000.000000 u_1_4_8 - 1.645517 s_1_4  + 1.645517 s_1_7  + 2000.000000 r_1_4_8 > 9.362200
s_2_8 + s_2_4 + 1000 r_2_4_8 >= 2
- s_2_8 - s_2_4 - 1000 r_2_4_8 >= -1001
t_2_8 - t_2_4 + 1000.000000 u_2_4_8 - 2.415957 s_2_4  + 2.415957 s_2_7  + 2000.000000 r_2_4_8 > 9.482100
s_1_8 + s_1_7 + 1000 r_1_7_8 >= 2
- s_1_8 - s_1_7 - 1000 r_1_7_8 >= -1001
t_1_8 - t_1_7 + 1000.000000 u_1_7_8 - 0.000000 s_1_7  + 2000.000000 r_1_7_8 > 39.808000
s_2_8 + s_2_7 + 1000 r_2_7_8 >= 2
- s_2_8 - s_2_7 - 1000 r_2_7_8 >= -1001
t_2_8 - t_2_7 + 1000.000000 u_2_7_8 - 0.000000 s_2_7  + 2000.000000 r_2_7_8 > 46.451300
Binary
s_1_1
s_2_1
s_1_2
s_2_2
s_1_3
s_2_3
s_1_4
s_2_4
s_1_5
s_2_5
s_1_6
s_2_6
s_1_7
s_2_7
s_1_8
s_2_8
u_1_1_2
r_1_1_2
u_2_1_2
r_2_1_2
u_1_1_3
r_1_1_3
u_2_1_3
r_2_1_3
u_1_1_4
r_1_1_4
u_2_1_4
r_2_1_4
u_1_1_5
r_1_1_5
u_2_1_5
r_2_1_5
u_1_2_3
r_1_2_3
u_2_2_3
r_2_2_3
u_1_2_4
r_1_2_4
u_2_2_4
r_2_2_4
u_1_2_5
r_1_2_5
u_2_2_5
r_2_2_5
u_1_2_8
r_1_2_8
u_2_2_8
r_2_2_8
u_1_3_4
r_1_3_4
u_2_3_4
r_2_3_4
u_1_3_5
r_1_3_5
u_2_3_5
r_2_3_5
u_1_4_5
r_1_4_5
u_2_4_5
r_2_4_5
u_1_4_8
r_1_4_8
u_2_4_8
r_2_4_8
u_1_5_7
r_1_5_7
u_2_5_7
r_2_5_7
u_1_7_8
r_1_7_8
u_2_7_8
r_2_7_8

End
